% Instance for pentominoes model generated using https://github.com/zayenz/minizinc-pentominoes-generator
% Instance generated for board size 10 with 5 tiles using 42 as seed
% Generated board
%    5532222244
%    5532222224
%    1133222224
%    1333222224
%    1133332222
%    1133332222
%    1133333322
%    1113333332
%    1111133332
%    1111133333

size = 10;
tiles = 5;
expressions = [
    "( ([2 3 4 5 6]* 1{2} [2 3 4 5 6]{8} [2 3 4 5 6] 1{1} [2 3 4 5 6]{9} [2 3 4 5 6] 1{2} [2 3 4 5 6]{8} [2 3 4 5 6] 1{2} [2 3 4 5 6]{8} [2 3 4 5 6] 1{2} [2 3 4 5 6]{8} [2 3 4 5 6] 1{3} [2 3 4 5 6]{7} [2 3 4 5 6] 1{5} [2 3 4 5 6]{5} [2 3 4 5 6] 1{5} [2 3 4 5 6]*) | ([2 3 4 5 6]* 1{8} [2 3 4 5 6]{2} [2 3 4 5 6] 1{6} [2 3 4 5 6]{1} 1{1} [2 3 4 5 6]{2} [2 3 4 5 6] 1{3} [2 3 4 5 6]{7} [2 3 4 5 6] 1{2} [2 3 4 5 6]{8} [2 3 4 5 6] 1{2} [2 3 4 5 6]*) | ([2 3 4 5 6]* 1{5} [2 3 4 5 6] [2 3 4 5 6]{5} 1{5} [2 3 4 5 6] [2 3 4 5 6]{7} 1{3} [2 3 4 5 6] [2 3 4 5 6]{8} 1{2} [2 3 4 5 6] [2 3 4 5 6]{8} 1{2} [2 3 4 5 6] [2 3 4 5 6]{8} 1{2} [2 3 4 5 6] [2 3 4 5 6]{9} 1{1} [2 3 4 5 6] [2 3 4 5 6]{8} 1{2} [2 3 4 5 6]*) | ([2 3 4 5 6]* 1{2} [2 3 4 5 6] [2 3 4 5 6]{8} 1{2} [2 3 4 5 6] [2 3 4 5 6]{7} 1{3} [2 3 4 5 6] [2 3 4 5 6]{2} 1{1} [2 3 4 5 6]{1} 1{6} [2 3 4 5 6] [2 3 4 5 6]{2} 1{8} [2 3 4 5 6]*) | ([2 3 4 5 6]* 1{2} [2 3 4 5 6] [2 3 4 5 6]{9} 1{1} [2 3 4 5 6] [2 3 4 5 6]{8} 1{2} [2 3 4 5 6] [2 3 4 5 6]{8} 1{2} [2 3 4 5 6] [2 3 4 5 6]{8} 1{2} [2 3 4 5 6] [2 3 4 5 6]{7} 1{3} [2 3 4 5 6] [2 3 4 5 6]{5} 1{5} [2 3 4 5 6] [2 3 4 5 6]{5} 1{5} [2 3 4 5 6]*) | ([2 3 4 5 6]* 1{8} [2 3 4 5 6] [2 3 4 5 6]{2} 1{1} [2 3 4 5 6]{1} 1{6} [2 3 4 5 6] [2 3 4 5 6]{7} 1{3} [2 3 4 5 6] [2 3 4 5 6]{8} 1{2} [2 3 4 5 6] [2 3 4 5 6]{8} 1{2} [2 3 4 5 6]*) | ([2 3 4 5 6]* 1{5} [2 3 4 5 6]{5} [2 3 4 5 6] 1{5} [2 3 4 5 6]{5} [2 3 4 5 6] 1{3} [2 3 4 5 6]{7} [2 3 4 5 6] 1{2} [2 3 4 5 6]{8} [2 3 4 5 6] 1{2} [2 3 4 5 6]{8} [2 3 4 5 6] 1{2} [2 3 4 5 6]{8} [2 3 4 5 6] 1{1} [2 3 4 5 6]{9} [2 3 4 5 6] 1{2} [2 3 4 5 6]*) | ([2 3 4 5 6]* 1{2} [2 3 4 5 6]{8} [2 3 4 5 6] 1{2} [2 3 4 5 6]{8} [2 3 4 5 6] 1{3} [2 3 4 5 6]{7} [2 3 4 5 6] 1{6} [2 3 4 5 6]{1} 1{1} [2 3 4 5 6]{2} [2 3 4 5 6] 1{8} [2 3 4 5 6]*) )",
    "( ([1 3 4 5 6]* 2{5} [1 3 4 5 6]{2} [1 3 4 5 6] [1 3 4 5 6]{3} 2{6} [1 3 4 5 6]{1} [1 3 4 5 6] [1 3 4 5 6]{4} 2{5} [1 3 4 5 6]{1} [1 3 4 5 6] [1 3 4 5 6]{4} 2{5} [1 3 4 5 6]{1} [1 3 4 5 6] [1 3 4 5 6]{6} 2{4} [1 3 4 5 6] [1 3 4 5 6]{6} 2{4} [1 3 4 5 6] [1 3 4 5 6]{8} 2{2} [1 3 4 5 6] [1 3 4 5 6]{9} 2{1} [1 3 4 5 6] [1 3 4 5 6]{9} 2{1} [1 3 4 5 6]*) | ([1 3 4 5 6]* 2{2} [1 3 4 5 6] [1 3 4 5 6]{6} 2{4} [1 3 4 5 6] [1 3 4 5 6]{6} 2{4} [1 3 4 5 6] [1 3 4 5 6]{4} 2{6} [1 3 4 5 6] [1 3 4 5 6]{4} 2{6} [1 3 4 5 6] [1 3 4 5 6]{3} 2{6} [1 3 4 5 6]{1} [1 3 4 5 6] [1 3 4 5 6]{1} 2{5} [1 3 4 5 6]*) | ([1 3 4 5 6]* 2{1} [1 3 4 5 6]{9} [1 3 4 5 6] 2{1} [1 3 4 5 6]{9} [1 3 4 5 6] 2{2} [1 3 4 5 6]{8} [1 3 4 5 6] 2{4} [1 3 4 5 6]{6} [1 3 4 5 6] 2{4} [1 3 4 5 6]{6} [1 3 4 5 6] [1 3 4 5 6]{1} 2{5} [1 3 4 5 6]{4} [1 3 4 5 6] [1 3 4 5 6]{1} 2{5} [1 3 4 5 6]{4} [1 3 4 5 6] [1 3 4 5 6]{1} 2{6} [1 3 4 5 6]{3} [1 3 4 5 6] [1 3 4 5 6]{2} 2{5} [1 3 4 5 6]*) | ([1 3 4 5 6]* 2{5} [1 3 4 5 6]{1} [1 3 4 5 6] [1 3 4 5 6]{1} 2{6} [1 3 4 5 6]{3} [1 3 4 5 6] 2{6} [1 3 4 5 6]{4} [1 3 4 5 6] 2{6} [1 3 4 5 6]{4} [1 3 4 5 6] 2{4} [1 3 4 5 6]{6} [1 3 4 5 6] 2{4} [1 3 4 5 6]{6} [1 3 4 5 6] 2{2} [1 3 4 5 6]*) | ([1 3 4 5 6]* 2{5} [1 3 4 5 6]{3} [1 3 4 5 6] [1 3 4 5 6]{1} 2{6} [1 3 4 5 6]{3} [1 3 4 5 6] [1 3 4 5 6]{1} 2{5} [1 3 4 5 6]{4} [1 3 4 5 6] [1 3 4 5 6]{1} 2{5} [1 3 4 5 6]{4} [1 3 4 5 6] 2{4} [1 3 4 5 6]{6} [1 3 4 5 6] 2{4} [1 3 4 5 6]{6} [1 3 4 5 6] 2{2} [1 3 4 5 6]{8} [1 3 4 5 6] 2{1} [1 3 4 5 6]{9} [1 3 4 5 6] 2{1} [1 3 4 5 6]*) | ([1 3 4 5 6]* 2{2} [1 3 4 5 6]{8} [1 3 4 5 6] 2{4} [1 3 4 5 6]{6} [1 3 4 5 6] 2{4} [1 3 4 5 6]{6} [1 3 4 5 6] 2{6} [1 3 4 5 6]{4} [1 3 4 5 6] 2{6} [1 3 4 5 6]{4} [1 3 4 5 6] [1 3 4 5 6]{1} 2{6} [1 3 4 5 6]{3} [1 3 4 5 6] [1 3 4 5 6]{4} 2{5} [1 3 4 5 6]*) | ([1 3 4 5 6]* 2{1} [1 3 4 5 6] [1 3 4 5 6]{9} 2{1} [1 3 4 5 6] [1 3 4 5 6]{8} 2{2} [1 3 4 5 6] [1 3 4 5 6]{6} 2{4} [1 3 4 5 6] [1 3 4 5 6]{6} 2{4} [1 3 4 5 6] [1 3 4 5 6]{4} 2{5} [1 3 4 5 6]{1} [1 3 4 5 6] [1 3 4 5 6]{4} 2{5} [1 3 4 5 6]{1} [1 3 4 5 6] [1 3 4 5 6]{3} 2{6} [1 3 4 5 6]{1} [1 3 4 5 6] [1 3 4 5 6]{3} 2{5} [1 3 4 5 6]*) | ([1 3 4 5 6]* 2{5} [1 3 4 5 6]{4} [1 3 4 5 6] [1 3 4 5 6]{3} 2{6} [1 3 4 5 6]{1} [1 3 4 5 6] [1 3 4 5 6]{4} 2{6} [1 3 4 5 6] [1 3 4 5 6]{4} 2{6} [1 3 4 5 6] [1 3 4 5 6]{6} 2{4} [1 3 4 5 6] [1 3 4 5 6]{6} 2{4} [1 3 4 5 6] [1 3 4 5 6]{8} 2{2} [1 3 4 5 6]*) )",
    "( ([1 2 4 5 6]* 3{1} [1 2 4 5 6]{7} [1 2 4 5 6] [1 2 4 5 6]{2} 3{1} [1 2 4 5 6]{7} [1 2 4 5 6] [1 2 4 5 6]{2} 3{2} [1 2 4 5 6]{6} [1 2 4 5 6] [1 2 4 5 6]{1} 3{3} [1 2 4 5 6]{6} [1 2 4 5 6] [1 2 4 5 6]{2} 3{4} [1 2 4 5 6]{4} [1 2 4 5 6] [1 2 4 5 6]{2} 3{4} [1 2 4 5 6]{4} [1 2 4 5 6] [1 2 4 5 6]{2} 3{6} [1 2 4 5 6]{2} [1 2 4 5 6] [1 2 4 5 6]{3} 3{6} [1 2 4 5 6]{1} [1 2 4 5 6] [1 2 4 5 6]{5} 3{4} [1 2 4 5 6]{1} [1 2 4 5 6] [1 2 4 5 6]{5} 3{5} [1 2 4 5 6]*) | ([1 2 4 5 6]* 3{1} [1 2 4 5 6]{3} [1 2 4 5 6] [1 2 4 5 6]{3} 3{7} [1 2 4 5 6] [1 2 4 5 6]{2} 3{6} [1 2 4 5 6]{2} [1 2 4 5 6] [1 2 4 5 6]{2} 3{4} [1 2 4 5 6]{4} [1 2 4 5 6] 3{6} [1 2 4 5 6]{4} [1 2 4 5 6] 3{4} [1 2 4 5 6]{6} [1 2 4 5 6] 3{4} [1 2 4 5 6]{6} [1 2 4 5 6] 3{3} [1 2 4 5 6]{7} [1 2 4 5 6] 3{1} [1 2 4 5 6]*) | ([1 2 4 5 6]* 3{5} [1 2 4 5 6]{5} [1 2 4 5 6] [1 2 4 5 6]{1} 3{4} [1 2 4 5 6]{5} [1 2 4 5 6] [1 2 4 5 6]{1} 3{6} [1 2 4 5 6]{3} [1 2 4 5 6] [1 2 4 5 6]{2} 3{6} [1 2 4 5 6]{2} [1 2 4 5 6] [1 2 4 5 6]{4} 3{4} [1 2 4 5 6]{2} [1 2 4 5 6] [1 2 4 5 6]{4} 3{4} [1 2 4 5 6]{2} [1 2 4 5 6] [1 2 4 5 6]{6} 3{3} [1 2 4 5 6]{1} [1 2 4 5 6] [1 2 4 5 6]{6} 3{2} [1 2 4 5 6]{2} [1 2 4 5 6] [1 2 4 5 6]{7} 3{1} [1 2 4 5 6]{2} [1 2 4 5 6] [1 2 4 5 6]{7} 3{1} [1 2 4 5 6]*) | ([1 2 4 5 6]* 3{1} [1 2 4 5 6] [1 2 4 5 6]{7} 3{3} [1 2 4 5 6] [1 2 4 5 6]{6} 3{4} [1 2 4 5 6] [1 2 4 5 6]{6} 3{4} [1 2 4 5 6] [1 2 4 5 6]{4} 3{6} [1 2 4 5 6] [1 2 4 5 6]{4} 3{4} [1 2 4 5 6]{2} [1 2 4 5 6] [1 2 4 5 6]{2} 3{6} [1 2 4 5 6]{2} [1 2 4 5 6] 3{7} [1 2 4 5 6]{3} [1 2 4 5 6] [1 2 4 5 6]{3} 3{1} [1 2 4 5 6]*) | ([1 2 4 5 6]* 3{1} [1 2 4 5 6]{2} [1 2 4 5 6] [1 2 4 5 6]{7} 3{1} [1 2 4 5 6]{2} [1 2 4 5 6] [1 2 4 5 6]{6} 3{2} [1 2 4 5 6]{2} [1 2 4 5 6] [1 2 4 5 6]{6} 3{3} [1 2 4 5 6]{1} [1 2 4 5 6] [1 2 4 5 6]{4} 3{4} [1 2 4 5 6]{2} [1 2 4 5 6] [1 2 4 5 6]{4} 3{4} [1 2 4 5 6]{2} [1 2 4 5 6] [1 2 4 5 6]{2} 3{6} [1 2 4 5 6]{2} [1 2 4 5 6] [1 2 4 5 6]{1} 3{6} [1 2 4 5 6]{3} [1 2 4 5 6] [1 2 4 5 6]{1} 3{4} [1 2 4 5 6]{5} [1 2 4 5 6] 3{5} [1 2 4 5 6]*) | ([1 2 4 5 6]* 3{1} [1 2 4 5 6]{6} [1 2 4 5 6] 3{7} [1 2 4 5 6]{3} [1 2 4 5 6] [1 2 4 5 6]{2} 3{6} [1 2 4 5 6]{2} [1 2 4 5 6] [1 2 4 5 6]{4} 3{4} [1 2 4 5 6]{2} [1 2 4 5 6] [1 2 4 5 6]{4} 3{6} [1 2 4 5 6] [1 2 4 5 6]{6} 3{4} [1 2 4 5 6] [1 2 4 5 6]{6} 3{4} [1 2 4 5 6] [1 2 4 5 6]{7} 3{3} [1 2 4 5 6] [1 2 4 5 6]{9} 3{1} [1 2 4 5 6]*) | ([1 2 4 5 6]* 3{5} [1 2 4 5 6] [1 2 4 5 6]{5} 3{4} [1 2 4 5 6]{1} [1 2 4 5 6] [1 2 4 5 6]{3} 3{6} [1 2 4 5 6]{1} [1 2 4 5 6] [1 2 4 5 6]{2} 3{6} [1 2 4 5 6]{2} [1 2 4 5 6] [1 2 4 5 6]{2} 3{4} [1 2 4 5 6]{4} [1 2 4 5 6] [1 2 4 5 6]{2} 3{4} [1 2 4 5 6]{4} [1 2 4 5 6] [1 2 4 5 6]{1} 3{3} [1 2 4 5 6]{6} [1 2 4 5 6] [1 2 4 5 6]{2} 3{2} [1 2 4 5 6]{6} [1 2 4 5 6] [1 2 4 5 6]{2} 3{1} [1 2 4 5 6]{7} [1 2 4 5 6] [1 2 4 5 6]{2} 3{1} [1 2 4 5 6]*) | ([1 2 4 5 6]* 3{1} [1 2 4 5 6]{9} [1 2 4 5 6] 3{3} [1 2 4 5 6]{7} [1 2 4 5 6] 3{4} [1 2 4 5 6]{6} [1 2 4 5 6] 3{4} [1 2 4 5 6]{6} [1 2 4 5 6] 3{6} [1 2 4 5 6]{4} [1 2 4 5 6] [1 2 4 5 6]{2} 3{4} [1 2 4 5 6]{4} [1 2 4 5 6] [1 2 4 5 6]{2} 3{6} [1 2 4 5 6]{2} [1 2 4 5 6] [1 2 4 5 6]{3} 3{7} [1 2 4 5 6] [1 2 4 5 6]{6} 3{1} [1 2 4 5 6]*) )",
    "( ([1 2 3 5 6]* 4{2} [1 2 3 5 6] [1 2 3 5 6]{9} 4{1} [1 2 3 5 6] [1 2 3 5 6]{9} 4{1} [1 2 3 5 6] [1 2 3 5 6]{9} 4{1} [1 2 3 5 6]*) | ([1 2 3 5 6]* 4{1} [1 2 3 5 6] [1 2 3 5 6]{6} 4{4} [1 2 3 5 6]*) | ([1 2 3 5 6]* 4{1} [1 2 3 5 6]{9} [1 2 3 5 6] 4{1} [1 2 3 5 6]{9} [1 2 3 5 6] 4{1} [1 2 3 5 6]{9} [1 2 3 5 6] 4{2} [1 2 3 5 6]*) | ([1 2 3 5 6]* 4{4} [1 2 3 5 6]{6} [1 2 3 5 6] 4{1} [1 2 3 5 6]*) | ([1 2 3 5 6]* 4{2} [1 2 3 5 6]{8} [1 2 3 5 6] 4{1} [1 2 3 5 6]{9} [1 2 3 5 6] 4{1} [1 2 3 5 6]{9} [1 2 3 5 6] 4{1} [1 2 3 5 6]*) | ([1 2 3 5 6]* 4{1} [1 2 3 5 6]{9} [1 2 3 5 6] 4{4} [1 2 3 5 6]*) | ([1 2 3 5 6]* 4{1} [1 2 3 5 6] [1 2 3 5 6]{9} 4{1} [1 2 3 5 6] [1 2 3 5 6]{9} 4{1} [1 2 3 5 6] [1 2 3 5 6]{8} 4{2} [1 2 3 5 6]*) | ([1 2 3 5 6]* 4{4} [1 2 3 5 6] [1 2 3 5 6]{9} 4{1} [1 2 3 5 6]*) )",
    "( ([1 2 3 4 6]* 5{2} [1 2 3 4 6]{8} [1 2 3 4 6] 5{2} [1 2 3 4 6]*) | ([1 2 3 4 6]* 5{2} [1 2 3 4 6] [1 2 3 4 6]{8} 5{2} [1 2 3 4 6]*) )",
];
